\ENCODING=ISO-8859-1
\Problem name: IloCplex

Minimize
 obj: 1000000000000 x1 + 1000000000000 x2 + 1000000000000 x3 + 1000000000000 x4
      + 1000000000000 x5 + 1000000000000 x6 + 1000000000000 x7
      + 1000000000000 x8 + 1000000000000 x9 + 1000000000000 x10
      + 1000000000000 x11 + 1000000000000 x12 + 1000000000000 x13
      + 1000000000000 x14 + 1000000000000 x15 + 1000000000000 x16
      + 1000000000000 x17 + 1000000000000 x18 + 1000000000000 x19
      + 1000000000000 x20 + 1000000000000 x21 + 1000000000000 x22
      + 1000000000000 x23 + 1000000000000 x24 + 1000000000000 x25
      + 1000000000000 x26 + 1000000000000 x27 + 1000000000000 x28
      + 1000000000000 x29 + 1000000000000 x30 + 1000000000000 x31
      + 1000000000000 x32 + 1000000000000 x33 + 1000000000000 x34
      + 1000000000000 x35 + 1000000000000 x36 + 1000000000000 x37
      + 1000000000000 x38 + 1000000000000 x39 + 1000000000000 x40
      + 1000000000000 x41 + 1000000000000 x42 + 1000000000000 x43
      + 1000000000000 x44 + 1000000000000 x45 + 1000000000000 x46
      + 1000000000000 x47 + 1000000000000 x48 + 1000000000000 x49
      + 1000000000000 x50 + x51 + x52 + x53 + x54 + x55 + x56 + x57 + x58 + x59
      + x60 + x61 + x62 + x63 + x64 + x65 + x66 + x67 + x68 + x69 + x70 + x71
      + x72 + x73 + x74 + x75 + x76 + x77 + x78 + x79 + x80 + x81 + x82 + x83
      + x84 + x85 + x86 + x87 + x88 + x89 + x90 + x91 + x92 + x93 + x94 + x95
      + x96 + x97 + x98 + x99 + x100 + x101 + x102 + x103 + x104 + x105 + x106
      + x107 + x108 + x109 + x110 + x111 + x112 + x113 + x114 + x115 + x116
      + x117 + x118 + x119 + x120 + x121 + x122 + x123 + x124 + x125 + x126
      + x127 + x128 + x129 + x130 + x131 + x132 + x133 + x134 + x135 + x136
      + x137 + x138 + x139 + x140 + x141 + x142 + x143 + x144 + x145 + x146
      + x147 + x148 + x149 + x150 + x151 + x152 + x153 + x154 + x155 + x156
      + x157 + x158 + x159 + x160 + x161 + x162 + x163 + x164 + x165 + x166
      + x167 + x168 + x169 + x170 + x171 + x172 + x173 + x174 + x175 + x176
      + x177 + x178 + x179 + x180
Subject To
 c1:  x1 + x131  = 1
 c2:  x2 + x132  = 1
 c3:  x3 + x130  = 1
 c4:  x4 + x136  = 1
 c5:  x5 + x133  = 1
 c6:  x6 + x134  = 1
 c7:  x7 + x135  = 1
 c8:  x8 + x144  = 1
 c9:  x9 + x137  = 1
 c10: x10 + x138  = 1
 c11: x11 + x139  = 1
 c12: x12 + x140 + x180  = 1
 c13: x13 + x141  = 1
 c14: x14 + x142  = 1
 c15: x15 + x143  = 1
 c16: x16 + x98 + x128 + x149  = 1
 c17: x17 + x145  = 1
 c18: x18 + x108 + x152 + x168 + x176  = 1
 c19: x19 + x150 + x151 + x157 + x170  = 1
 c20: x20 + x110 + x114 + x119 + x126 + x161 + x166  = 1
 c21: x21 + x121 + x122 + x123 + x169  = 1
 c22: x22 + x146 + x147 + x160  = 1
 c23: x23 + x113 + x116 + x118 + x129  = 1
 c24: x24 + x91 + x97 + x111 + x163  = 1
 c25: x25 + x99 + x106 + x125 + x167 + x171  = 1
 c26: x26 + x101 + x103 + x105 + x117 + x124 + x164 + x165 + x173 + x177 + x179
       = 1
 c27: x27 + x92 + x94 + x95 + x96 + x102 + x127 + x172  = 1
 c28: x28 + x87 + x90 + x107 + x115 + x153 + x154 + x159  = 1
 c29: x29 + x86 + x89 + x155 + x175  = 1
 c30: x30 + x86 + x88 + x156 + x158 + x162 + x174 + x178  = 1
 c31: x31 + x79 + x82 + x87 + x109 + x120 + x153 + x158  = 1
 c32: x32 + x76 + x83 + x84 + x85 + x88 + x89 + x104 + x120 + x148 + x154
      + x178  = 1
 c33: x33 + x74 + x76 + x81 + x90 + x93 + x100 + x105 + x125  = 1
 c34: x34 + x71 + x73 + x74 + x80 + x95 + x106 + x148 + x156  = 1
 c35: x35 + x68 + x69 + x70 + x71 + x72 + x78 + x85 + x100 + x103 + x109 + x112
      + x114 + x117 + x118 + x146 + x162  = 1
 c36: x36 + x65 + x66 + x67 + x68 + x72 + x75 + x77 + x80 + x82 + x97 + x102
      + x119 + x171  = 1
 c37: x37 + x62 + x63 + x64 + x65 + x67 + x71 + x77 + x78 + x96 + x104 + x112
      + x115 + x127 + x150 + x152 + x165 + x170  = 1
 c38: x38 + x62 + x63 + x64 + x65 + x66 + x69 + x70 + x73 + x75 + x78 + x79
      + x84 + x93 + x99 + x107 + x112 + x116 + x123 + x161  = 1
 c39: x39 + x57 + x58 + x59 + x60 + x61 + x63 + x64 + x67 + x70 + x73 + x77
      + x83 + x91 + x108 + x167 + x175 + x177  = 1
 c40: x40 + x57 + x58 + x59 + x60 + x61 + x62 + x69 + x72 + x75 + x78 + x81
      + x82 + x92 + x101 + x107 + x111 + x121 + x160 + x162 + x173 + x174
      + x175 + x176 + x177  = 1
 c41: x41 + x51 + x52 + x53 + x54 + x55 + x56 + x57 + x58 + x61 + x63 + x66
      + x68 + x77 + x79 + x81 + x94 + x100 + x101 + x104 + x111 + x113 + x122
      + x169  = 1
 c42: x42 + x51 + x52 + x53 + x54 + x55 + x56 + x57 + x58 + x59 + x65 + x66
      + x70 + x80 + x81 + x84 + x85 + x92 + x93 + x98 + x104 + x124 + x126
      + x148 + x149  = 1
 c43: x43 + x51 + x52 + x53 + x54 + x55 + x56 + x57 + x58 + x59 + x60 + x64
      + x68 + x69 + x74 + x84 + x91 + x109 + x110 + x115 + x120 + x122 + x147
      + x151 + x168 + x174  = 1
 c44: x44 + x51 + x52 + x53 + x54 + x55 + x56 + x57 + x61 + x62 + x67 + x72
      + x75 + x79 + x80 + x83 + x96 + x100 + x102 + x124 + x128 + x164 + x165
      + x167 + x168 + x169 + x174 + x180  = 1
 c45: x45 + x51 + x52 + x53 + x54 + x55 + x56 + x58 + x59 + x60 + x61 + x64
      + x69 + x70 + x71 + x75 + x94 + x97 + x99 + x109 + x113 + x116 + x121
      + x164  = 1
 c46: x46 + x51 + x52 + x53 + x54 + x55 + x58 + x62 + x66 + x67 + x72 + x73
      + x76 + x77 + x88 + x93 + x98 + x129  = 1
 c47: x47 + x51 + x52 + x53 + x54 + x59 + x60 + x61 + x62 + x63 + x65 + x72
      + x73 + x74 + x81 + x83 + x85 + x87 + x94 + x99 + x110 + x117 + x118
      + x147 + x159  = 1
 c48: x48 + x51 + x52 + x53 + x59 + x60 + x61 + x62 + x64 + x66 + x68 + x73
      + x75 + x76 + x80 + x81 + x83 + x84 + x94 + x95 + x96 + x103 + x113
      + x119 + x160 + x167 + x168 + x170 + x173  = 1
 c49: x49 + x51 + x52 + x59 + x60 + x62 + x63 + x64 + x66 + x67 + x69 + x70
      + x74 + x78 + x80 + x85 + x90 + x94 + x106 + x126 + x158 + x159 + x175
      + x176  = 1
 c50: x50 + x51 + x59 + x61 + x63 + x64 + x65 + x66 + x67 + x69 + x73 + x76
      + x79 + x85 + x92 + x101 + x103 + x107 + x110 + x114 + x120 + x128 + x150
      + x173  = 1
Bounds
      x51 = 0
      x52 = 0
      x53 = 0
      x54 = 0
      x55 = 0
      x56 = 0
      x57 = 0
      x58 = 0
      x59 = 0
      x60 = 0
      x61 = 0
      x62 = 0
      x63 = 0
      x64 = 0
      x65 = 0
      x66 = 0
      x67 = 0
      x68 = 0
      x69 = 0
      x70 = 0
      x71 = 0
      x72 = 0
      x73 = 0
      x74 = 0
      x75 = 0
      x76 = 0
      x77 = 0
      x78 = 0
      x79 = 0
      x80 = 0
      x81 = 0
      x82 = 0
      x83 = 0
      x84 = 0
      x85 = 0
      x86 = 0
      x88 = 0
      x90 = 0
      x91 = 0
      x92 = 0
      x93 = 0
      x94 = 0
      x96 = 0
      x97 = 0
      x99 = 0
      x100 = 0
      x101 = 0
      x102 = 0
      x103 = 0
      x104 = 0
      x107 = 0
      x109 = 0
      x110 = 0
      x111 = 0
      x112 = 0
      x113 = 0
      x114 = 0
      x115 = 0
      x117 = 0
      x118 = 0
      x120 = 0
      x121 = 0
      x123 = 0
      x124 = 0
      x126 = 0
      x127 = 0
      x128 = 0
      x129 = 0
      x147 = 0
      x148 = 0
      x149 = 0
      x151 = 0
      x152 = 0
      x153 = 0
      x154 = 0
      x157 = 0
      x160 = 0
      x161 = 0
      x162 = 0
      x165 = 0
      x166 = 0
      x168 = 0
      x169 = 0
      x171 = 0
      x174 = 0
End
